66 36 69 60 22 17 10 40 51 59 1 65 39 46 16 44 20 2 75 76 73 63 11 42 8 30 7 49 61 25 72 32 57 47 13 70 48 45 19 23 0 41 55 4 33 50 71 18 28 43 6 27 29 53 26 37 3 54 24 15 21 31 67 14 64 62 68 35 52 5 58 56 12 9 34 74 38 